c "271836.clq"
p edge 120 464
e 1 5
e 1 6
e 1 10
e 1 48
e 1 95
e 1 98
e 2 5
e 2 6
e 2 11
e 2 14
e 2 15
e 2 16
e 2 22
e 2 24
e 2 29
e 2 30
e 2 43
e 2 45
e 2 47
e 2 51
e 2 58
e 2 65
e 2 75
e 2 85
e 3 5
e 3 6
e 3 7
e 3 8
e 3 14
e 3 23
e 3 35
e 3 50
e 3 69
e 3 85
e 4 5
e 4 7
e 4 9
e 4 12
e 4 14
e 4 24
e 4 34
e 4 43
e 4 61
e 4 94
e 4 107
e 5 6
e 5 7
e 5 8
e 5 9
e 5 10
e 5 11
e 5 20
e 5 25
e 5 28
e 5 35
e 5 36
e 5 40
e 5 45
e 5 47
e 5 53
e 5 62
e 5 67
e 5 70
e 5 95
e 5 98
e 5 101
e 6 7
e 6 8
e 6 9
e 6 10
e 6 11
e 6 12
e 6 16
e 6 18
e 6 20
e 6 23
e 6 29
e 6 32
e 6 38
e 6 39
e 6 50
e 6 52
e 6 55
e 6 70
e 6 73
e 6 78
e 6 104
e 6 107
e 7 8
e 7 9
e 7 17
e 7 18
e 7 19
e 7 21
e 7 24
e 7 26
e 7 27
e 7 34
e 7 38
e 7 46
e 7 48
e 7 49
e 7 54
e 7 58
e 7 67
e 7 74
e 7 76
e 7 77
e 7 79
e 7 81
e 7 90
e 7 105
e 7 106
e 7 107
e 7 109
e 7 120
e 8 10
e 8 11
e 8 12
e 8 13
e 8 14
e 8 15
e 8 17
e 8 18
e 8 21
e 8 22
e 8 25
e 8 26
e 8 32
e 8 33
e 8 42
e 8 51
e 8 55
e 8 58
e 8 59
e 8 68
e 8 74
e 8 91
e 8 92
e 8 115
e 9 13
e 9 15
e 9 16
e 9 18
e 9 19
e 9 22
e 9 27
e 9 31
e 9 33
e 9 36
e 9 40
e 9 41
e 9 44
e 9 45
e 9 46
e 9 54
e 9 60
e 9 62
e 9 65
e 9 67
e 9 71
e 9 73
e 9 75
e 9 78
e 9 86
e 9 93
e 9 102
e 9 104
e 10 17
e 10 24
e 10 29
e 10 30
e 10 66
e 10 80
e 10 97
e 10 110
e 11 12
e 11 13
e 11 17
e 11 19
e 11 21
e 11 30
e 11 35
e 11 39
e 11 41
e 11 44
e 11 99
e 12 13
e 12 15
e 12 19
e 12 31
e 12 40
e 12 44
e 12 46
e 12 59
e 12 65
e 12 68
e 12 76
e 12 80
e 12 88
e 12 99
e 13 16
e 13 20
e 13 23
e 13 28
e 13 38
e 13 42
e 13 45
e 13 56
e 13 57
e 13 64
e 13 71
e 13 72
e 13 74
e 13 81
e 13 83
e 13 87
e 13 106
e 13 120
e 14 56
e 14 72
e 14 82
e 15 25
e 15 47
e 15 52
e 15 64
e 15 86
e 15 94
e 15 100
e 15 114
e 16 21
e 16 22
e 16 26
e 16 28
e 16 33
e 16 36
e 16 37
e 16 41
e 16 47
e 16 48
e 16 54
e 16 61
e 16 62
e 16 63
e 16 89
e 16 93
e 16 95
e 16 100
e 16 102
e 16 107
e 16 114
e 17 20
e 17 26
e 17 27
e 17 29
e 17 117
e 18 32
e 18 35
e 18 42
e 18 43
e 18 106
e 18 120
e 19 23
e 19 25
e 19 56
e 19 80
e 19 86
e 19 90
e 19 98
e 20 83
e 21 27
e 21 34
e 21 37
e 21 89
e 21 92
e 22 37
e 22 39
e 23 28
e 23 38
e 23 42
e 23 79
e 23 84
e 23 116
e 24 50
e 24 56
e 24 62
e 24 65
e 24 81
e 24 104
e 24 113
e 25 32
e 25 39
e 25 46
e 25 103
e 25 112
e 26 70
e 26 71
e 26 112
e 27 31
e 27 34
e 27 41
e 27 49
e 27 51
e 27 55
e 27 79
e 27 82
e 27 89
e 27 103
e 27 118
e 28 33
e 28 49
e 28 50
e 28 53
e 28 57
e 28 77
e 28 111
e 29 30
e 29 37
e 29 74
e 29 100
e 30 31
e 30 96
e 31 64
e 31 79
e 31 103
e 31 114
e 32 60
e 32 95
e 32 96
e 32 105
e 32 118
e 33 60
e 33 89
e 33 99
e 34 36
e 34 44
e 34 49
e 34 58
e 34 68
e 34 76
e 34 84
e 34 90
e 34 97
e 34 108
e 35 75
e 35 114
e 35 115
e 36 51
e 36 61
e 36 63
e 36 90
e 37 40
e 37 52
e 37 55
e 37 119
e 38 48
e 38 66
e 38 87
e 39 43
e 39 66
e 39 76
e 40 92
e 40 116
e 41 71
e 41 72
e 41 99
e 42 69
e 42 78
e 42 88
e 42 91
e 42 101
e 42 119
e 43 59
e 43 63
e 43 64
e 43 97
e 43 111
e 44 53
e 44 54
e 45 68
e 46 67
e 46 93
e 46 96
e 46 109
e 46 115
e 46 117
e 47 53
e 47 57
e 47 87
e 47 105
e 48 73
e 48 87
e 49 52
e 49 57
e 49 96
e 49 110
e 49 116
e 50 59
e 50 73
e 50 88
e 50 108
e 51 113
e 52 104
e 53 69
e 53 108
e 54 81
e 54 120
e 57 61
e 57 86
e 57 88
e 58 72
e 58 77
e 58 82
e 58 83
e 58 85
e 58 102
e 59 60
e 59 83
e 59 101
e 59 110
e 59 111
e 60 70
e 62 63
e 62 69
e 62 77
e 62 78
e 62 84
e 62 102
e 63 66
e 63 106
e 66 75
e 67 84
e 70 80
e 72 82
e 72 109
e 74 94
e 75 105
e 76 91
e 76 101
e 77 91
e 77 111
e 79 85
e 79 92
e 79 119
e 81 109
e 82 98
e 83 94
e 84 97
e 85 118
e 86 100
e 87 93
e 87 112
e 88 112
e 88 119
e 93 117
e 94 113
e 94 115
e 96 118
e 97 110
e 99 103
e 102 113
e 105 116
e 107 108
e 114 117
